0
4,120
69,152
72,90,116,135
5
6
6,72
62,142
56,75,137
11,124
9
51,109,117,134
66,99
16
65,114
38,89
17
108,126
73,110
46,107
9,23,113
21
23
115,127
25
26
27
1,118
67,71
30
17,32
33
23,33
3
36
42
125,142
43
43,143
7
64,104
47
30,72
66,114
8,10
111,139
48,70
50
52
53
20,28,68,92,103,130,141,150,151
2,43,110
81,105
46,55
5,125
57
58
55
8,76
63
16,52
64
116
72
46,128
70
71
72
64,149
73
15,125
98
76
78
79
12,14,22,24,29,34,37,39,40,61,94,95,123,131,133,144,146
26,42,122
83
84
85
86
21,93
90
91
13,102
6,36
96
112
19,106,147
135
27,145
101
35
3,73
46,54
18,149
96,97
47,64
107
25,100
119,140
77
127,132
136
101,125
90
115
83
43,63
36,72
119
91
41,44,59
122
52,85
6,90
79,118
31,45
127
128
129
132
138
57,88
140
142
143
0,53
57,88,121
60,148
82,87
149
80
78
49,50,58,80
8,74
